(set-option :produce-models true)
(set-logic QF_UF)
(declare-fun p15() Bool)
(declare-fun p72() Bool)
(declare-fun p86() Bool)
(declare-fun p74() Bool)
(declare-fun p32() Bool)
(declare-fun p57() Bool)
(declare-fun p49() Bool)
(declare-fun p84() Bool)
(declare-fun p51() Bool)
(declare-fun p45() Bool)
(declare-fun p56() Bool)
(declare-fun p63() Bool)
(declare-fun p26() Bool)
(declare-fun p70() Bool)
(declare-fun p81() Bool)
(declare-fun p48() Bool)
(declare-fun p31() Bool)
(declare-fun p11() Bool)
(declare-fun p50() Bool)
(declare-fun p61() Bool)
(declare-fun p10() Bool)
(declare-fun p13() Bool)
(declare-fun p20() Bool)
(declare-fun p52() Bool)
(declare-fun p22() Bool)
(declare-fun p30() Bool)
(declare-fun p25() Bool)
(declare-fun p6() Bool)
(declare-fun p80() Bool)
(declare-fun p38() Bool)
(declare-fun p37() Bool)
(declare-fun p9() Bool)
(declare-fun p21() Bool)
(declare-fun p87() Bool)
(declare-fun p44() Bool)
(declare-fun p59() Bool)
(declare-fun p76() Bool)
(declare-fun p60() Bool)
(declare-fun p39() Bool)
(declare-fun p83() Bool)
(declare-fun p8() Bool)
(declare-fun p77() Bool)
(declare-fun p42() Bool)
(declare-fun p40() Bool)
(declare-fun p85() Bool)
(declare-fun p28() Bool)
(declare-fun p2() Bool)
(declare-fun p35() Bool)
(declare-fun p66() Bool)
(declare-fun p68() Bool)
(declare-fun p71() Bool)
(declare-fun p79() Bool)
(declare-fun p36() Bool)
(declare-fun p33() Bool)
(declare-fun p23() Bool)
(declare-fun p18() Bool)
(declare-fun p47() Bool)
(declare-fun p4() Bool)
(declare-fun p0() Bool)
(declare-fun p78() Bool)
(declare-fun p75() Bool)
(declare-fun p41() Bool)
(declare-fun p29() Bool)
(declare-fun p53() Bool)
(declare-fun p58() Bool)
(declare-fun p3() Bool)
(declare-fun p12() Bool)
(declare-fun p69() Bool)
(declare-fun p7() Bool)
(declare-fun p89() Bool)
(declare-fun p19() Bool)
(declare-fun p73() Bool)
(declare-fun p24() Bool)
(declare-fun p27() Bool)
(declare-fun p34() Bool)
(declare-fun p67() Bool)
(declare-fun p62() Bool)
(declare-fun p88() Bool)
(declare-fun p82() Bool)
(declare-fun p65() Bool)
(declare-fun p16() Bool)
(declare-fun p17() Bool)
(declare-fun p43() Bool)
(declare-fun p64() Bool)
(declare-fun p54() Bool)
(declare-fun p1() Bool)
(declare-fun p55() Bool)
(declare-fun p5() Bool)
(declare-fun p46() Bool)
(declare-fun p14() Bool)
(assert
(and (or p15 (not p72) p86) (or p74 p32 p57) (or (not p49) p84 p51) (or p45 (not p56) (not p63)) (or p84 (not p26) (not p57)) (or p70 p74 p81) (or (not p72) (not p48) p31) (or (not p11) p50 p61) (or p81 (not p84) p10) (or p13 p20 (not p51)) (or p52 p22 (not p45)) (or p30 p25 (not p6)) (or p80 (not p38) (not p72)) (or p37 p9 (not p6)) (or (not p13) p52 (not p72)) (or (not p25) p21 p25) (or p87 (not p25) p11) (or (not p44) p59 p76) (or (not p22) (not p60) p39) (or p83 (not p8) (not p57)) (or (not p72) (not p6) (not p77)) (or (not p13) (not p60) (not p42)) (or p21 (not p40) p85) (or p45 (not p28) p59) (or p2 (not p35) (not p66)) (or (not p68) (not p71) p79) (or p13 p36 p9) (or p22 (not p33) p81) (or p77 p23 p28) (or p18 (not p77) (not p47)) (or p60 (not p2) p22) (or p63 (not p60) (not p4)) (or (not p0) (not p78) p75) (or (not p37) p4 p40) (or (not p85) p11 p48) (or p28 (not p83) p41) (or p29 (not p29) (not p30)) (or p50 (not p26) p57) (or (not p38) (not p84) (not p87)) (or p81 p53 p58) (or (not p9) (not p3) (not p12)) (or p76 p84 p47) (or (not p18) p26 p69) (or (not p81) p7 p48) (or (not p40) (not p47) p63) (or (not p89) (not p87) (not p19)) (or (not p28) (not p73) p22) (or (not p6) (not p24) (not p45)) (or (not p24) (not p45) p27) (or p25 (not p73) p73) (or (not p2) (not p69) (not p89)) (or (not p3) p34 p38) (or p23 p66 (not p81)) (or p26 p44 (not p40)) (or (not p50) p67 (not p7)) (or p32 (not p89) (not p76)) (or p49 p62 p13) (or p37 (not p4) p53) (or (not p88) p36 (not p11)) (or p82 (not p78) (not p34)) (or p89 p78 (not p80)) (or p32 (not p52) (not p28)) (or (not p83) p52 (not p56)) (or p50 p77 p48) (or (not p20) p57 (not p48)) (or p39 p65 p13) (or p45 p74 p33) (or (not p16) p51 (not p81)) (or p35 p22 p89) (or (not p34) (not p42) (not p78)) (or p70 (not p70) (not p15)) (or p63 p17 (not p56)) (or p35 (not p62) p7) (or (not p88) p23 p47) (or p6 p53 (not p6)) (or p40 p83 (not p80)) (or p8 (not p43) (not p83)) (or p35 (not p33) (not p23)) (or p71 p52 (not p38)) (or p21 (not p10) (not p63)) (or p9 (not p25) p27) (or p75 p72 p70) (or (not p8) p77 (not p48)) (or p29 p32 p34) (or (not p47) p44 (not p30)) (or (not p37) p16 (not p52)) (or p23 p73 p38) (or (not p23) (not p89) p13) (or p80 (not p11) p43) (or (not p59) p82 p37) (or (not p78) (not p84) (not p69)) (or (not p64) (not p39) p19) (or (not p67) p9 p36) (or p89 (not p36) (not p48)) (or (not p31) p86 (not p3)) (or p54 (not p74) (not p2)) (or p2 p22 p62) (or (not p18) (not p1) (not p66)) (or p88 (not p41) p12) (or p4 (not p43) p64) (or (not p12) (not p57) p52) (or (not p58) p76 p27) (or p35 (not p58) p28) (or p9 p68 p45) (or (not p34) (not p37) (not p27)) (or p70 p55 (not p81)) (or (not p78) (not p12) p80) (or (not p8) p54 (not p64)) (or (not p17) (not p23) (not p69)) (or (not p69) p69 p86) (or (not p39) p39 p4) (or p39 (not p4) p87) (or (not p49) p6 p23) (or (not p69) (not p38) p86) (or (not p78) (not p21) (not p1)) (or p45 (not p30) p69) (or p12 (not p18) p89) (or (not p50) (not p80) (not p39)) (or p37 p61 p59) (or p29 p22 (not p29)) (or (not p13) p59 p38) (or p12 (not p57) (not p31)) (or p67 (not p38) (not p4)) (or p60 (not p12) (not p53)) (or p29 p2 p36) (or (not p11) (not p30) (not p86)) (or (not p77) p31 (not p57)) (or p54 (not p33) (not p65)) (or p71 (not p64) (not p3)) (or (not p5) p4 (not p23)) (or (not p73) p25 p30) (or p54 (not p54) (not p13)) (or p84 p76 (not p28)) (or p38 p46 p57) (or (not p8) p70 (not p35)) (or p70 (not p60) (not p41)) (or (not p40) p39 p83) (or (not p47) p29 (not p55)) (or (not p67) (not p48) p35) (or (not p61) p35 p23) (or p35 (not p82) (not p28)) (or p28 p40 p35) (or (not p24) (not p77) (not p22)) (or (not p36) p3 (not p1)) (or p19 (not p71) (not p6)) (or (not p24) (not p65) p47) (or p45 p5 (not p20)) (or p39 p18 (not p31)) (or (not p56) p8 (not p31)) (or (not p37) (not p17) p49) (or p49 p79 p66) (or (not p72) p38 p7) (or (not p28) (not p49) (not p12)) (or p62 p0 (not p84)) (or p4 (not p59) p34) (or (not p32) (not p12) p68) (or p86 (not p33) (not p66)) (or p69 (not p36) p64) (or p82 p37 (not p6)) (or (not p28) (not p20) (not p24)) (or p83 (not p48) p37) (or p37 p24 (not p44)) (or p88 (not p63) (not p57)) (or (not p86) (not p56) (not p34)) (or p72 (not p23) (not p76)) (or (not p70) p84 (not p32)) (or p58 (not p17) (not p14)) (or p69 (not p75) p44) (or p22 (not p84) (not p3)) (or (not p17) p58 p30) (or p9 (not p19) p46) (or p79 p22 p5) (or (not p78) (not p78) p42) (or p88 (not p32) (not p62)) (or p20 (not p51) p22) (or p70 p37 p1) (or (not p85) p85 p71) (or p68 p19 (not p33)) (or p52 (not p8) (not p81)) (or (not p67) (not p48) (not p20)) (or (not p77) (not p40) (not p3)) (or p34 (not p23) (not p43)) (or (not p60) p17 (not p58)) (or (not p39) (not p61) (not p59)) (or p13 (not p64) (not p71)) (or (not p63) (not p50) (not p61)) (or p65 (not p18) p48) (or (not p39) (not p60) (not p73)) (or (not p75) p78 (not p61)) (or (not p17) p52 p25) (or p49 p74 p42) (or (not p63) (not p39) (not p73)) (or p42 p58 (not p52)) (or p42 (not p63) (not p59)) (or p32 p41 p12) (or p69 p26 p42) (or (not p41) (not p32) p59) (or (not p4) (not p12) p41) (or (not p77) (not p68) (not p68)) (or p43 p74 p78) (or p45 p74 (not p47)) (or p17 p16 p51) (or p9 p32 (not p86)) (or (not p23) p50 p61) (or p35 p70 (not p61)) (or p23 (not p21) (not p1)) (or p41 (not p85) p58) (or p85 (not p88) (not p72)) (or p64 p72 (not p8)) (or p58 p32 (not p9)) (or (not p73) p53 (not p11)) (or p53 (not p23) (not p64)) (or (not p68) (not p46) (not p81)) (or p73 p4 (not p72)) (or (not p63) (not p39) p80) (or (not p79) (not p63) (not p50)) (or (not p53) (not p83) p78) (or (not p70) (not p34) (not p6)) (or p74 p27 (not p14)) (or (not p23) (not p45) (not p33)) (or p66 (not p31) (not p26)) (or (not p0) p27 (not p78)) (or (not p7) p23 (not p25)) (or (not p18) (not p26) (not p80)) (or (not p60) (not p3) (not p59)) (or (not p53) p89 p84) (or p2 p89 p77) (or (not p17) p69 (not p52)) (or p65 (not p63) p27) (or p75 (not p50) (not p89)) (or (not p44) (not p11) p54) (or (not p64) p43 (not p16)) (or (not p57) p84 (not p42)) (or p30 p80 (not p70)) (or (not p74) p42 p6) (or (not p69) p61 p22) (or p70 p85 p42) (or (not p52) p36 (not p71)) (or p50 (not p89) p80) (or p41 (not p7) (not p85)) (or p39 p80 (not p65)) (or p85 p76 p29) (or p33 p52 (not p39)) (or p20 (not p89) (not p71)) (or (not p19) (not p56) (not p25)) (or p33 (not p34) p4) (or (not p61) (not p32) (not p66)) (or p44 p13 p49) (or (not p74) p13 (not p53)) (or p21 p27 (not p44)) (or p63 p9 p59) (or (not p20) p24 p44) (or (not p1) p53 (not p48)) (or (not p22) (not p19) p10) (or (not p59) p67 p3) (or (not p33) (not p69) (not p27)) (or p25 p67 p43) (or (not p88) (not p10) (not p14)) (or (not p58) (not p78) p55) (or p24 p29 p62) (or p34 (not p68) p76) (or (not p51) (not p39) (not p89)) (or (not p76) (not p44) (not p18)) (or (not p57) (not p69) (not p71)) (or (not p36) (not p87) (not p0)) (or (not p8) p3 p50) (or (not p70) p75 p71) (or p2 p89 p55) (or (not p49) p33 p56) (or (not p0) p73 (not p78)) (or p29 (not p34) p42) (or p47 (not p32) (not p34)) (or (not p16) p0 p65) (or p13 p27 (not p43)) (or p62 p41 (not p71)) (or (not p34) (not p63) (not p65)) (or (not p82) p75 (not p86)) (or (not p48) p54 p38) (or (not p63) (not p65) (not p74)) (or p79 (not p89) (not p31)) (or (not p65) p26 p48) (or (not p1) (not p1) p79) (or (not p33) p12 (not p21)) (or (not p79) (not p75) p31) (or (not p31) (not p70) p27) (or (not p80) p28 (not p34)) (or p36 p24 p38) (or p41 p81 p35) (or (not p39) (not p39) p20) (or p13 (not p26) p61) (or p57 p45 (not p78)) (or p32 (not p21) p17) (or (not p13) p14 p50) (or p52 (not p34) (not p2)) (or p22 (not p9) p52) (or p81 p85 (not p73)) (or (not p67) p38 (not p1)) (or p59 p53 p24) (or (not p20) (not p48) p39) (or p86 p17 (not p85)) (or p17 p75 (not p15)) (or (not p37) p21 (not p63)) (or p12 p74 (not p20)) (or p72 p55 p59) (or (not p71) (not p21) (not p40)) (or p31 (not p11) (not p55)) (or p19 p53 p76) (or p70 p24 p64) (or (not p10) (not p0) p62) (or (not p52) (not p89) (not p63)) (or (not p84) p68 (not p46)) (or (not p43) p87 p0) (or (not p9) p31 p36) (or p3 p25 p14) (or p24 (not p17) (not p69)) (or p70 (not p29) (not p7)) (or p68 (not p15) p71) (or p9 p57 p21) (or p67 (not p40) (not p15)) (or (not p63) p54 p45) (or p1 (not p23) p8) (or p37 p9 p61) (or p77 p42 p10) (or (not p23) (not p38) p80) (or p4 (not p42) p15) (or (not p6) p42 (not p47)) (or p35 (not p3) p84) (or p54 p4 (not p22)) (or p21 (not p22) (not p7)) (or p6 p15 p28) (or (not p67) p57 p18) (or (not p15) p82 (not p30)) (or (not p41) (not p45) (not p73)) (or p68 p26 (not p30)) (or p22 p37 (not p57)) (or (not p84) p34 (not p32)) (or p85 (not p38) p16) (or p29 (not p60) (not p11)) (or (not p28) (not p31) (not p28)) (or p58 p4 (not p48)) (or p4 p75 (not p64)) (or (not p61) (not p66) (not p26)) (or p42 p57 (not p84)) (or p73 (not p62) p10) (or (not p24) (not p28) (not p46)) (or (not p72) (not p58) p29) (or p21 (not p35) p24) (or (not p9) p71 (not p40)) (or p37 p33 (not p79)) (or p89 p70 p86) (or (not p56) (not p6) (not p21)) (or p46 p26 p18) (or (not p35) (not p76) (not p28)) (or (not p29) p23 (not p67)) (or (not p14) (not p10) (not p6)) (or (not p14) (not p39) (not p71)) (or p11 (not p80) (not p89)) (or (not p37) p45 p7) (or (not p50) p25 (not p6)) (or (not p35) p83 p34) (or p26 p2 (not p8)) (or p25 (not p10) (not p41)) (or (not p67) (not p44) (not p59)) (or p73 (not p34) (not p81)) (or p51 p35 p51) (or p79 (not p66) (not p83)) (or (not p4) p42 p37) (or (not p34) p87 p31) (or (not p17) (not p0) p12) (or (not p62) (not p3) (not p35)) (or (not p76) p41 (not p50)) (or (not p32) (not p42) (not p25)) (or (not p62) (not p55) (not p33)) (or p85 p31 p60) (or p6 p43 p32) (or p60 p69 (not p21)) (or p36 p77 (not p72)) (or p59 p12 p35) (or p18 (not p16) (not p89)) (or p27 p18 (not p75)) (or (not p79) p38 p30) (or (not p12) (not p7) p87) (or (not p46) (not p28) (not p20)) (or (not p25) (not p42) p60) (or (not p20) p2 (not p30)) (or p89 (not p24) p76) (or (not p25) p80 (not p48)) (or p56 p69 p79) (or p89 p71 p77) (or p25 p77 p68) (or p31 (not p81) p5) (or p7 (not p36) (not p89)) (or (not p47) (not p67) (not p38)) (or p81 p21 p2) (or (not p18) p31 p50) (or (not p20) p40 (not p85)) (or p85 (not p42) p14) (or (not p88) p77 p17) (or (not p69) p14 p23) (or p78 p42 p3) (or p57 (not p13) (not p79)) (or (not p40) (not p3) p53) (or p49 (not p62) p9) (or (not p85) (not p74) p77) (or (not p36) (not p46) p45) (or p23 (not p6) (not p2)) (or p70 (not p31) (not p62)) (or p32 p46 p76) (or (not p32) p29 p66) (or p70 (not p83) p77) (or p51 (not p22) (not p81)) (or p22 (not p67) (not p61)) (or (not p50) p75 (not p38)) (or p10 (not p32) (not p77)) (or (not p67) (not p38) p61) (or (not p84) (not p83) (not p20)) (or p61 (not p50) (not p14)) (or (not p11) (not p59) (not p80)) (or (not p44) p62 (not p80)) (or p59 (not p89) (not p57)) (or p89 p87 (not p74)) (or p66 p36 p63) (or p82 (not p87) p46) (or p28 p44 p10) (or p85 p52 p62) (or p55 (not p9) (not p39)) (or p0 p32 (not p89)) (or (not p45) p87 (not p58)) (or (not p6) p74 p0) (or p88 p81 p4) (or p86 p33 p85) (or p43 (not p78) (not p27)) (or (not p44) p7 p5) (or p85 (not p64) p44) (or p5 (not p52) (not p52)) (or (not p9) (not p52) (not p6)) (or (not p14) (not p37) (not p81)) (or p37 (not p37) (not p63)) (or p33 (not p27) p23) (or p69 p52 p45) (or (not p73) (not p76) (not p41)) (or p58 (not p44) (not p75)) (or p77 p52 p29) (or p44 (not p69) p41) (or p62 p15 p61) (or (not p67) (not p34) (not p85)) (or (not p52) p27 p0) (or (not p63) p67 (not p55)))
)
(check-sat)
(get-model)
